150
[30,31,32,33,34,35,36,37,38,39,40,41,42,43,44,45,46,47,48,49,50,51,52,53,54,55,56,57,58,59,60,61,62,63,64,65,66,67,68,69,70,71,72,73,74,75,76,77,78,79,80,81,82,83,84,85,86,87,88,89,90,91,92,93,94,95,96,97,98,99,100,101,102,103,104,105,106,107,108,109,110,111,112,113,114,115,116,117,118,119,120]
[11,9,12,6,7,2,14,10,11,4,10,4,8,15,7,4,5,13,9,5,12,2,9,11,10,16,7,7,8,7,8,4,7,8,7,7,14,7,10,8,7,9,15,8,8,4,8,15,5,9,7,4,4,10,8,16,6,9,11,7,13,10,5,5,9,8,6,8,9,4,5,10,9,6,13,8,9,10,7,5,9,10,5,9,9,3,12,5,7,12,5]
